voting_member("aduh95","Antoine du Hamel").
voting_member("anonrig","Yagiz Nizipli").
voting_member("benjamingr","Benjamin Gruenbaum").
voting_member("BridgeAR","Ruben Bridgewater").
voting_member("gireeshpunathil","Gireesh Punathil").
voting_member("jasnell","James M Snell").
voting_member("joyeecheung","Joyee Cheung").
voting_member("legendecas","Chengzhong Wu").
voting_member("marco-ippolito","Marco Ippolito").
voting_member("mcollina","Matteo Collina").
voting_member("panva","Filip Skokan").
voting_member("RafaelGSS","Rafael Gonzaga").
voting_member("RaisinTen","Darshan Sen").
voting_member("richardlau","Richard Lau").
voting_member("ronag","Robert Nagy").
voting_member("ruyadorno","Ruy Adorno").
voting_member("ShogunPanda","Paolo Insogna").
voting_member("tniessen","Tobias Nießen").
